Route #1: 0 5 6 22 21 4 25 43 0
Route #2: 0 41 8 16 29 11 26 33 19 12 40 42 28 13 0
Route #3: 0 9 2 15 32 37 0
Route #4: 0 1 44 7 34 27 14 18 36 39 0
Route #5: 0 30 23 17 10 24 3 31 38 35 20 0
Cost 795:
